n = 15;
clue = clue = clue = clue = [| 10, 12, 15, 14, 11, 13, 1, 9, 1, 4, 7, 3, 6, 2, 5
 |  8, 15, 12, 13, 1, 2, 6, ... ]; // array too long to display, dimensions: (30)
 // array too long to display, dimensions: (211)


